p cnf 49 173
-1 2 -3 0
1 -2 -3 0
-1 -2 3 0
1 2 3 0
-6 4 0
-6 5 0
-4 -5 6 0
8 6 0
8 7 0
-6 -7 -8 0
9 3 0
9 -8 0
-3 8 -9 0
12 -10 0
12 11 0
10 -11 -12 0
10 12 -13 0
-10 -12 -13 0
10 -12 13 0
-10 12 13 0
-14 -9 0
-14 -13 0
9 13 14 0
-16 5 0
-16 -15 0
-5 15 16 0
4 16 -17 0
-4 -16 -17 0
4 -16 17 0
-4 16 17 0
6 17 -18 0
-6 -17 -18 0
6 -17 18 0
-6 17 18 0
-19 -14 0
-19 18 0
14 -18 19 0
-10 12 -20 0
10 -12 -20 0
-10 -12 20 0
10 12 20 0
-20 -4 -21 0
20 4 -21 0
-20 4 21 0
20 -4 21 0
22 -20 0
22 6 0
20 -6 -22 0
23 21 0
23 22 0
-21 -22 -23 0
-19 23 -24 0
19 -23 -24 0
-19 -23 24 0
19 23 24 0
-25 20 0
-25 -20 0
26 -20 0
26 11 0
20 -11 -26 0
25 26 -27 0
-25 -26 -27 0
25 -26 27 0
-25 26 27 0
27 28 -29 0
-27 -28 -29 0
27 -28 29 0
-27 28 29 0
30 -26 0
30 -16 0
26 16 -30 0
31 -30 0
31 27 0
30 -27 -31 0
32 31 0
32 -26 0
-31 26 -32 0
34 -33 0
34 26 0
33 -26 -34 0
-32 -34 -35 0
32 34 -35 0
-32 34 35 0
32 -34 35 0
36 7 0
36 -15 0
-7 15 -36 0
-10 5 -37 0
10 -5 -37 0
-10 -5 37 0
10 5 37 0
38 -36 0
38 37 0
36 -37 -38 0
-39 20 0
-39 -11 0
-20 11 39 0
-40 16 0
-40 39 0
-16 -39 40 0
-10 -40 -41 0
10 40 -41 0
-10 40 41 0
10 -40 41 0
42 -38 0
42 -41 0
38 41 -42 0
35 -42 -43 0
-35 42 -43 0
35 42 43 0
-35 -42 43 0
44 -20 0
44 -1 0
20 1 -44 0
45 -4 0
45 -31 0
4 31 -45 0
44 -45 -46 0
-44 45 -46 0
44 45 46 0
-44 -45 46 0
47 -43 0
47 46 0
43 -46 -47 0
-29 -47 -48 0
29 47 -48 0
-29 47 48 0
29 -47 48 0
-24 48 -49 0
24 -48 -49 0
-24 -48 49 0
24 48 49 0
-27 -18 17 -47 -12 0
-48 -1 0
-33 -22 -21 0
-7 15 0
-13 -33 34 -47 0
-46 -31 -11 0
-8 -37 31 29 44 0
48 45 22 -49 -35 -12 0
17 28 49 -6 -3 0
40 -14 -27 0
29 47 45 19 0
-45 26 44 -47 -38 -12 0
-38 -46 -48 -1 0
35 47 -25 -32 39 0
34 1 18 11 0
6 28 34 32 16 0
18 7 47 -26 0
23 29 11 34 0
-49 2 -12 14 0
-16 -3 -36 0
16 -29 -8 -3 -14 -23 0
19 -20 4 0
-21 4 0
45 33 0
45 -20 8 40 -13 17 0
-26 -39 -19 -32 -22 0
37 -15 -14 -12 -8 0
-10 -26 39 0
40 -21 -31 -48 -11 14 0
-31 -25 0
17 11 -37 -38 15 0
14 25 -18 39 0
29 -12 -10 4 -23 0
19 -44 -42 0
-45 3 21 0
-49 38 15 40 0
20 4 43 0
-20 4 -12 31 0
19 -7 -25 0
48 26 0
49 0
